c description: Perfect Matching Principle on 
c generator: CNFgen (0.9.0)
c copyright: (C) 2012-2020 Massimo Lauria <massimo.lauria@uniroma1.it>
c url: https://massimolauria.net/cnfgen
c
p cnf 80 622
-1 -2 0
-1 -3 0
-1 -4 0
-1 -5 0
-1 -6 0
-2 -3 0
-2 -4 0
-2 -5 0
-2 -6 0
-3 -4 0
-3 -5 0
-3 -6 0
-4 -5 0
-4 -6 0
-5 -6 0
1 2 3 4 5 6 0
-1 -7 0
-1 -8 0
-1 -9 0
-1 -10 0
-1 -11 0
-1 -12 0
-1 -13 0
-7 -8 0
-7 -9 0
-7 -10 0
-7 -11 0
-7 -12 0
-7 -13 0
-8 -9 0
-8 -10 0
-8 -11 0
-8 -12 0
-8 -13 0
-9 -10 0
-9 -11 0
-9 -12 0
-9 -13 0
-10 -11 0
-10 -12 0
-10 -13 0
-11 -12 0
-11 -13 0
-12 -13 0
1 7 8 9 10 11 12 13 0
-7 -14 0
-7 -15 0
-7 -16 0
-7 -17 0
-7 -18 0
-7 -19 0
-7 -20 0
-7 -21 0
-7 -22 0
-14 -15 0
-14 -16 0
-14 -17 0
-14 -18 0
-14 -19 0
-14 -20 0
-14 -21 0
-14 -22 0
-15 -16 0
-15 -17 0
-15 -18 0
-15 -19 0
-15 -20 0
-15 -21 0
-15 -22 0
-16 -17 0
-16 -18 0
-16 -19 0
-16 -20 0
-16 -21 0
-16 -22 0
-17 -18 0
-17 -19 0
-17 -20 0
-17 -21 0
-17 -22 0
-18 -19 0
-18 -20 0
-18 -21 0
-18 -22 0
-19 -20 0
-19 -21 0
-19 -22 0
-20 -21 0
-20 -22 0
-21 -22 0
7 14 15 16 17 18 19 20 21 22 0
-23 -24 0
-23 -25 0
-23 -26 0
-23 -27 0
-23 -28 0
-23 -29 0
-23 -30 0
-23 -31 0
-24 -25 0
-24 -26 0
-24 -27 0
-24 -28 0
-24 -29 0
-24 -30 0
-24 -31 0
-25 -26 0
-25 -27 0
-25 -28 0
-25 -29 0
-25 -30 0
-25 -31 0
-26 -27 0
-26 -28 0
-26 -29 0
-26 -30 0
-26 -31 0
-27 -28 0
-27 -29 0
-27 -30 0
-27 -31 0
-28 -29 0
-28 -30 0
-28 -31 0
-29 -30 0
-29 -31 0
-30 -31 0
23 24 25 26 27 28 29 30 31 0
-2 -8 0
-2 -14 0
-2 -23 0
-2 -32 0
-2 -33 0
-2 -34 0
-2 -35 0
-2 -36 0
-2 -37 0
-8 -14 0
-8 -23 0
-8 -32 0
-8 -33 0
-8 -34 0
-8 -35 0
-8 -36 0
-8 -37 0
-14 -23 0
-14 -32 0
-14 -33 0
-14 -34 0
-14 -35 0
-14 -36 0
-14 -37 0
-23 -32 0
-23 -33 0
-23 -34 0
-23 -35 0
-23 -36 0
-23 -37 0
-32 -33 0
-32 -34 0
-32 -35 0
-32 -36 0
-32 -37 0
-33 -34 0
-33 -35 0
-33 -36 0
-33 -37 0
-34 -35 0
-34 -36 0
-34 -37 0
-35 -36 0
-35 -37 0
-36 -37 0
2 8 14 23 32 33 34 35 36 37 0
-24 -32 0
-24 -38 0
-24 -39 0
-24 -40 0
-24 -41 0
-24 -42 0
-32 -38 0
-32 -39 0
-32 -40 0
-32 -41 0
-32 -42 0
-38 -39 0
-38 -40 0
-38 -41 0
-38 -42 0
-39 -40 0
-39 -41 0
-39 -42 0
-40 -41 0
-40 -42 0
-41 -42 0
24 32 38 39 40 41 42 0
-38 -43 0
-38 -44 0
-38 -45 0
-38 -46 0
-38 -47 0
-43 -44 0
-43 -45 0
-43 -46 0
-43 -47 0
-44 -45 0
-44 -46 0
-44 -47 0
-45 -46 0
-45 -47 0
-46 -47 0
38 43 44 45 46 47 0
-25 -48 0
-25 -49 0
-25 -50 0
-25 -51 0
-48 -49 0
-48 -50 0
-48 -51 0
-49 -50 0
-49 -51 0
-50 -51 0
25 48 49 50 51 0
-9 -26 0
-9 -33 0
-9 -43 0
-9 -52 0
-9 -53 0
-9 -54 0
-9 -55 0
-9 -56 0
-9 -57 0
-9 -58 0
-9 -59 0
-26 -33 0
-26 -43 0
-26 -52 0
-26 -53 0
-26 -54 0
-26 -55 0
-26 -56 0
-26 -57 0
-26 -58 0
-26 -59 0
-33 -43 0
-33 -52 0
-33 -53 0
-33 -54 0
-33 -55 0
-33 -56 0
-33 -57 0
-33 -58 0
-33 -59 0
-43 -52 0
-43 -53 0
-43 -54 0
-43 -55 0
-43 -56 0
-43 -57 0
-43 -58 0
-43 -59 0
-52 -53 0
-52 -54 0
-52 -55 0
-52 -56 0
-52 -57 0
-52 -58 0
-52 -59 0
-53 -54 0
-53 -55 0
-53 -56 0
-53 -57 0
-53 -58 0
-53 -59 0
-54 -55 0
-54 -56 0
-54 -57 0
-54 -58 0
-54 -59 0
-55 -56 0
-55 -57 0
-55 -58 0
-55 -59 0
-56 -57 0
-56 -58 0
-56 -59 0
-57 -58 0
-57 -59 0
-58 -59 0
9 26 33 43 52 53 54 55 56 57 58 59 0
-3 -15 0
-3 -34 0
-3 -44 0
-3 -60 0
-3 -61 0
-3 -62 0
-3 -63 0
-15 -34 0
-15 -44 0
-15 -60 0
-15 -61 0
-15 -62 0
-15 -63 0
-34 -44 0
-34 -60 0
-34 -61 0
-34 -62 0
-34 -63 0
-44 -60 0
-44 -61 0
-44 -62 0
-44 -63 0
-60 -61 0
-60 -62 0
-60 -63 0
-61 -62 0
-61 -63 0
-62 -63 0
3 15 34 44 60 61 62 63 0
-4 -10 0
-4 -27 0
-4 -48 0
-4 -52 0
-4 -60 0
-4 -64 0
-4 -65 0
-4 -66 0
-4 -67 0
-10 -27 0
-10 -48 0
-10 -52 0
-10 -60 0
-10 -64 0
-10 -65 0
-10 -66 0
-10 -67 0
-27 -48 0
-27 -52 0
-27 -60 0
-27 -64 0
-27 -65 0
-27 -66 0
-27 -67 0
-48 -52 0
-48 -60 0
-48 -64 0
-48 -65 0
-48 -66 0
-48 -67 0
-52 -60 0
-52 -64 0
-52 -65 0
-52 -66 0
-52 -67 0
-60 -64 0
-60 -65 0
-60 -66 0
-60 -67 0
-64 -65 0
-64 -66 0
-64 -67 0
-65 -66 0
-65 -67 0
-66 -67 0
4 10 27 48 52 60 64 65 66 67 0
-11 -16 0
-11 -28 0
-11 -39 0
-11 -53 0
-11 -68 0
-11 -69 0
-11 -70 0
-16 -28 0
-16 -39 0
-16 -53 0
-16 -68 0
-16 -69 0
-16 -70 0
-28 -39 0
-28 -53 0
-28 -68 0
-28 -69 0
-28 -70 0
-39 -53 0
-39 -68 0
-39 -69 0
-39 -70 0
-53 -68 0
-53 -69 0
-53 -70 0
-68 -69 0
-68 -70 0
-69 -70 0
11 16 28 39 53 68 69 70 0
-12 -17 0
-12 -45 0
-12 -49 0
-12 -54 0
-12 -64 0
-12 -71 0
-12 -72 0
-12 -73 0
-17 -45 0
-17 -49 0
-17 -54 0
-17 -64 0
-17 -71 0
-17 -72 0
-17 -73 0
-45 -49 0
-45 -54 0
-45 -64 0
-45 -71 0
-45 -72 0
-45 -73 0
-49 -54 0
-49 -64 0
-49 -71 0
-49 -72 0
-49 -73 0
-54 -64 0
-54 -71 0
-54 -72 0
-54 -73 0
-64 -71 0
-64 -72 0
-64 -73 0
-71 -72 0
-71 -73 0
-72 -73 0
12 17 45 49 54 64 71 72 73 0
-5 -18 0
-5 -35 0
-5 -40 0
-5 -46 0
-5 -55 0
-5 -61 0
-5 -65 0
-5 -71 0
-5 -74 0
-18 -35 0
-18 -40 0
-18 -46 0
-18 -55 0
-18 -61 0
-18 -65 0
-18 -71 0
-18 -74 0
-35 -40 0
-35 -46 0
-35 -55 0
-35 -61 0
-35 -65 0
-35 -71 0
-35 -74 0
-40 -46 0
-40 -55 0
-40 -61 0
-40 -65 0
-40 -71 0
-40 -74 0
-46 -55 0
-46 -61 0
-46 -65 0
-46 -71 0
-46 -74 0
-55 -61 0
-55 -65 0
-55 -71 0
-55 -74 0
-61 -65 0
-61 -71 0
-61 -74 0
-65 -71 0
-65 -74 0
-71 -74 0
5 18 35 40 46 55 61 65 71 74 0
-19 -36 0
-19 -50 0
-19 -66 0
-19 -68 0
-19 -72 0
-19 -75 0
-19 -76 0
-36 -50 0
-36 -66 0
-36 -68 0
-36 -72 0
-36 -75 0
-36 -76 0
-50 -66 0
-50 -68 0
-50 -72 0
-50 -75 0
-50 -76 0
-66 -68 0
-66 -72 0
-66 -75 0
-66 -76 0
-68 -72 0
-68 -75 0
-68 -76 0
-72 -75 0
-72 -76 0
-75 -76 0
19 36 50 66 68 72 75 76 0
-20 -29 0
-20 -41 0
-20 -47 0
-20 -62 0
-20 -69 0
-20 -77 0
-29 -41 0
-29 -47 0
-29 -62 0
-29 -69 0
-29 -77 0
-41 -47 0
-41 -62 0
-41 -69 0
-41 -77 0
-47 -62 0
-47 -69 0
-47 -77 0
-62 -69 0
-62 -77 0
-69 -77 0
20 29 41 47 62 69 77 0
-21 -30 0
-21 -37 0
-21 -56 0
-21 -63 0
-21 -78 0
-21 -79 0
-30 -37 0
-30 -56 0
-30 -63 0
-30 -78 0
-30 -79 0
-37 -56 0
-37 -63 0
-37 -78 0
-37 -79 0
-56 -63 0
-56 -78 0
-56 -79 0
-63 -78 0
-63 -79 0
-78 -79 0
21 30 37 56 63 78 79 0
-22 -57 0
-22 -67 0
-22 -70 0
-22 -73 0
-22 -75 0
-22 -80 0
-57 -67 0
-57 -70 0
-57 -73 0
-57 -75 0
-57 -80 0
-67 -70 0
-67 -73 0
-67 -75 0
-67 -80 0
-70 -73 0
-70 -75 0
-70 -80 0
-73 -75 0
-73 -80 0
-75 -80 0
22 57 67 70 73 75 80 0
-6 -13 0
-6 -31 0
-6 -42 0
-6 -51 0
-6 -58 0
-6 -74 0
-6 -77 0
-6 -78 0
-6 -80 0
-13 -31 0
-13 -42 0
-13 -51 0
-13 -58 0
-13 -74 0
-13 -77 0
-13 -78 0
-13 -80 0
-31 -42 0
-31 -51 0
-31 -58 0
-31 -74 0
-31 -77 0
-31 -78 0
-31 -80 0
-42 -51 0
-42 -58 0
-42 -74 0
-42 -77 0
-42 -78 0
-42 -80 0
-51 -58 0
-51 -74 0
-51 -77 0
-51 -78 0
-51 -80 0
-58 -74 0
-58 -77 0
-58 -78 0
-58 -80 0
-74 -77 0
-74 -78 0
-74 -80 0
-77 -78 0
-77 -80 0
-78 -80 0
6 13 31 42 51 58 74 77 78 80 0
-59 -76 0
-59 -79 0
-76 -79 0
59 76 79 0